
Gurobi 10.0.1 (linux64) logging started Sun Nov 26 16:16:15 2023

Set parameter LogFile to value "ArtificialInstance/ExperimentV2/S4T4K3/AdRo/gurobiSpRo33.txt"
Gurobi Optimizer version 10.0.1 build v10.0.1rc0 (linux64)

CPU model: AMD EPYC 7H12 64-Core Processor, instruction set [SSE2|AVX|AVX2]
Thread count: 128 physical cores, 128 logical processors, using up to 32 threads

Academic license 656792 - for non-commercial use only - registered to b.___@student.vu.nl
Optimize a model with 21704 rows, 20431 columns and 79478 nonzeros
Model fingerprint: 0x5a2bc938
Variable types: 1 continuous, 20430 integer (20430 binary)
Coefficient statistics:
  Matrix range     [1e+00, 4e+01]
  Objective range  [1e+00, 2e+01]
  Bounds range     [1e+00, 1e+00]
  RHS range        [1e+00, 1e+00]
Presolve removed 9361 rows and 8875 columns
Presolve time: 0.26s
Presolved: 12343 rows, 11556 columns, 45004 nonzeros
Variable types: 1 continuous, 11555 integer (11555 binary)
Found heuristic solution: objective 93.1593819

Root relaxation: cutoff, 2999 iterations, 0.13 seconds (0.08 work units)

    Nodes    |    Current Node    |     Objective Bounds      |     Work
 Expl Unexpl |  Obj  Depth IntInf | Incumbent    BestBd   Gap | It/Node Time

     0     0     cutoff    0        93.15938   93.15938  0.00%     -    0s

Explored 1 nodes (2999 simplex iterations) in 0.47 seconds (0.34 work units)
Thread count was 32 (of 128 available processors)

Solution count 1: 93.1594 

Optimal solution found (tolerance 1.00e-04)
Best objective 9.315938192436e+01, best bound 9.315938192436e+01, gap 0.0000%
